70 170856
57 37 18 10 23 61 69 16 59 29 26 39 17 44 20 30 11 31 54 19 70 6 3 55 12 65 66 5 45 43 49 48 60 42 34 24 58 51 36 14 62 25 32 9 1 2 8 63 27 52 64 33 28 7 13 4 38 22 41 53 56 46 15 21 35 40 67 47 50 68 
